\* Problem: Unknown *\

Maximize
 obj: + xp_0_0 + xp_0_1 + xp_1_0 + xp_2_0 + xp_2_1 + xp_3_0 + xp_3_1
 + xp_3_2 + xp_4_0 + xp_5_0 + xp_6_0 + xp_6_1 + xp_7_0 + xp_8_0 + xp_9_0
 + xp_9_1 + xp_10_0 + xp_10_1 + xp_10_2 + xp_11_0 + xp_12_0 + xp_12_1
 + xp_13_0 + xp_14_0 + xp_15_0 + xp_15_1 + xp_16_0 + xp_17_0 + xp_17_1
 + xp_18_0 + xp_18_1 + xp_19_0 + xp_20_0 + xp_21_0 + xp_21_1 + xp_21_2
 + xp_22_0 + xp_22_1 + xp_22_2 + xp_23_0 + xp_24_0 + xp_24_1 + xp_24_2
 + xp_25_0 + xp_26_0 + xp_27_0 + xp_28_0 + xp_28_1 + xp_29_0 + xp_29_1
 + xp_30_0 + xp_31_0 + xp_31_1 + xp_32_0 + xp_33_0 + xp_34_0 + xp_35_0
 + xp_36_0 + xp_37_0 + xp_38_0 + xp_38_1 + xp_39_0 + xp_40_0 + xp_41_0
 + xp_42_0 + xp_42_1 + xp_43_0 + xp_44_0 + xp_45_0 + xp_46_0 + xp_47_0
 + xp_48_0 + xp_48_1 + xp_49_0 + xp_50_0 + xp_51_0 + xp_52_0 + xp_52_1
 + xp_53_0 + xp_54_0 + xp_55_0 + xp_56_0 + xp_57_0 + xp_58_0 + xp_59_0
 + xp_60_0 + xp_60_1 + xp_61_0 + xp_62_0 + xp_63_0 + xp_63_1 + xp_64_0
 + xp_65_0

Subject To
 r_1: + xp_60_1 + xp_53_0 + xp_51_0 + xp_40_0 + xp_35_0 + xp_33_0 <= 155
 r_2: + xp_24_2 + xp_15_1 <= 155
 r_3: + xp_56_0 + xp_21_0 + xp_12_0 <= 155
 r_4: + xp_65_0 + xp_50_0 + xp_45_0 + xp_24_1 + xp_24_0 + xp_21_2
 + xp_15_0 + xp_10_1 + xp_10_0 + xp_5_0 + xp_2_1 <= 142.043638598648
 r_5: + xp_38_0 + xp_31_1 + xp_17_0 + xp_14_0 <= 142.043638598648
 r_6: + xp_52_1 + xp_22_1 + xp_22_0 + xp_13_0 + xp_12_1 + xp_10_2
 + xp_3_2 + xp_3_0 + xp_2_0 <= 151.25355450237
 r_7: + xp_48_1 + xp_46_0 + xp_42_1 + xp_42_0 + xp_0_0
 <= 153.637538779731
 r_8: 0 xp_0_0 <= 149.23665791776
 r_9: + xp_64_0 + xp_63_1 + xp_29_1 + xp_25_0 + xp_24_2 + xp_21_0
 + xp_6_0 <= 155
 r_10: + xp_63_0 <= 150.204731574158
 r_11: + xp_60_0 + xp_38_1 + xp_31_0 <= 155
 r_12: + xp_62_0 + xp_61_0 + xp_60_1 + xp_22_2 + xp_21_1 + xp_3_1
 <= 151.25355450237
 r_13: + xp_64_0 + xp_59_0 + xp_56_0 + xp_29_1 + xp_29_0 + xp_24_2
 + xp_21_0 + xp_20_0 + xp_15_1 + xp_12_0 <= 155
 r_14: + xp_60_1 + xp_57_0 + xp_53_0 + xp_42_1 + xp_35_0 + xp_18_0
 <= 155
 r_15: + xp_63_1 + xp_58_0 <= 153.637538779731
 r_16: + xp_65_0 + xp_55_0 + xp_53_0 + xp_51_0 + xp_50_0 + xp_10_1
 + xp_10_0 <= 155
 r_17: + xp_54_0 + xp_52_1 + xp_36_0 + xp_31_1 <= 142.043638598648
 r_18: + xp_52_0 + xp_21_2 + xp_2_1 <= 155
 r_19: + xp_60_0 + xp_48_0 <= 149.23665791776
 r_20: + xp_50_0 + xp_49_0 + xp_48_1 + xp_46_0 + xp_45_0 + xp_10_1
 + xp_9_1 + xp_3_2 <= 142.043638598648
 r_21: + xp_47_0 + xp_26_0 + xp_22_2 + xp_21_1 + xp_17_1 + xp_17_0
 + xp_7_0 + xp_3_1 <= 155
 r_22: + xp_61_0 + xp_43_0 + xp_42_1 + xp_42_0 + xp_38_0
 <= 151.25355450237
 r_23: + xp_56_0 + xp_52_1 + xp_52_0 + xp_41_0 + xp_38_1 + xp_34_0
 + xp_31_0 <= 151.25355450237
 r_24: + xp_62_0 + xp_60_1 + xp_44_0 + xp_40_0 + xp_39_0 + xp_21_1
 + xp_12_1 + xp_10_2 + xp_2_0 <= 151.25355450237
 r_25: + xp_62_0 + xp_60_1 + xp_44_0 + xp_40_0 + xp_37_0 + xp_35_0
 + xp_33_0 + xp_10_2 <= 155
 r_26: + xp_39_0 + xp_36_0 + xp_32_0 + xp_31_1 <= 155
 r_27: + xp_56_0 + xp_52_0 + xp_34_0 + xp_31_0 + xp_30_0
 <= 151.25355450237
 r_28: + xp_60_0 + xp_48_1 + xp_48_0 + xp_42_0 + xp_29_1 + xp_27_0
 + xp_25_0 + xp_24_2 + xp_21_0 + xp_18_1 + xp_8_0 + xp_6_0
 <= 150.204731574158
 r_29: + xp_29_0 + xp_28_0 + xp_24_1 + xp_22_0 + xp_6_1 + xp_0_1
 <= 153.637538779731
 r_30: + xp_63_0 + xp_28_1 + xp_26_0 + xp_24_0 + xp_23_0 + xp_22_2
 + xp_22_1 + xp_21_2 + xp_21_1 + xp_17_1 <= 149.23665791776
 r_31: + xp_63_1 + xp_58_0 + xp_28_0 + xp_24_1 + xp_22_0 + xp_19_0
 + xp_17_0 + xp_15_0 + xp_14_0 + xp_13_0 + xp_12_1 <= 153.637538779731
 r_32: + xp_46_0 + xp_42_1 + xp_29_0 + xp_20_0 + xp_18_0 + xp_16_0
 + xp_15_1 + xp_12_0 + xp_6_1 <= 153.637538779731
 r_33: + xp_48_1 + xp_42_0 + xp_18_1 + xp_17_1 + xp_11_0
 <= 153.637538779731
 r_34: + xp_26_0 + xp_23_0 + xp_22_2 + xp_21_1 + xp_17_1 + xp_10_1
 + xp_9_1 + xp_7_0 + xp_4_0 + xp_3_2 + xp_3_1 <= 149.23665791776
 r_35: + xp_60_0 + xp_48_0 + xp_8_0 + xp_6_1 + xp_6_0 + xp_1_0 + xp_0_1
 <= 149.23665791776
 r_36: + xp_63_0 + xp_28_1 + xp_24_0 + xp_22_1 + xp_21_2 + xp_10_2
 + xp_10_0 + xp_9_0 + xp_5_0 + xp_3_0 + xp_2_1 + xp_2_0 + xp_0_0
 <= 149.23665791776

Bounds
 0 <= xp_0_0 <= 6.95307108350586
 0 <= xp_0_1 <= 20.8592132505176
 0 <= xp_1_0 <= 22.5350816655164
 0 <= xp_2_0 <= 12.4085576259489
 0 <= xp_2_1 <= 12.4085576259489
 0 <= xp_3_0 <= 7.20266850701633
 0 <= xp_3_1 <= 3.60133425350817
 0 <= xp_3_2 <= 3.60133425350817
 0 <= xp_4_0 <= 28.24016563147
 0 <= xp_5_0 <= 22.5350816655164
 0 <= xp_6_0 <= 12.9790660225443
 0 <= xp_6_1 <= 12.9790660225443
 0 <= xp_7_0 <= 21.9645732689211
 0 <= xp_8_0 <= 24.9597423510467
 0 <= xp_9_0 <= 13.0503795721187
 0 <= xp_9_1 <= 4.35012652403957
 0 <= xp_10_0 <= 8.12974465148378
 0 <= xp_10_1 <= 4.06487232574189
 0 <= xp_10_2 <= 4.06487232574189
 0 <= xp_11_0 <= 25.530250747642
 0 <= xp_12_0 <= 8.34368530020704
 0 <= xp_12_1 <= 8.34368530020704
 0 <= xp_13_0 <= 14.975845410628
 0 <= xp_14_0 <= 22.6777087646653
 0 <= xp_15_0 <= 7.06004140786749
 0 <= xp_15_1 <= 21.1801242236025
 0 <= xp_16_0 <= 26.9565217391304
 0 <= xp_17_0 <= 11.8380492293536
 0 <= xp_17_1 <= 11.8380492293536
 0 <= xp_18_0 <= 10.1265240395675
 0 <= xp_18_1 <= 10.1265240395675
 0 <= xp_19_0 <= 19.5399125833908
 0 <= xp_20_0 <= 23.2482171612606
 0 <= xp_21_0 <= 4.67103749712445
 0 <= xp_21_1 <= 4.67103749712445
 0 <= xp_21_2 <= 9.34207499424891
 0 <= xp_22_0 <= 5.66942719116632
 0 <= xp_22_1 <= 11.3388543823326
 0 <= xp_22_2 <= 5.66942719116632
 0 <= xp_23_0 <= 23.3908442604095
 0 <= xp_24_0 <= 4.56406717276282
 0 <= xp_24_1 <= 9.12813434552565
 0 <= xp_24_2 <= 4.56406717276282
 0 <= xp_25_0 <= 27.8122843340235
 0 <= xp_26_0 <= 18.541522889349
 0 <= xp_27_0 <= 14.975845410628
 0 <= xp_28_0 <= 18.5058661145618
 0 <= xp_28_1 <= 6.16862203818725
 0 <= xp_29_0 <= 16.7943409247757
 0 <= xp_29_1 <= 5.5981136415919
 0 <= xp_30_0 <= 27.6696572348746
 0 <= xp_31_0 <= 4.4570968484012
 0 <= xp_31_1 <= 13.3712905452036
 0 <= xp_32_0 <= 15.6889809063722
 0 <= xp_33_0 <= 18.8267770876467
 0 <= xp_34_0 <= 22.6777087646653
 0 <= xp_35_0 <= 15.5463538072234
 0 <= xp_36_0 <= 17.9710144927536
 0 <= xp_37_0 <= 14.2627099148838
 0 <= xp_38_0 <= 13.264320220842
 0 <= xp_38_1 <= 4.42144007361399
 0 <= xp_39_0 <= 15.1184725097769
 0 <= xp_40_0 <= 19.397285484242
 0 <= xp_41_0 <= 20.5383022774327
 0 <= xp_42_0 <= 11.9806763285024
 0 <= xp_42_1 <= 11.9806763285024
 0 <= xp_43_0 <= 16.9726247987118
 0 <= xp_44_0 <= 18.1136415919025
 0 <= xp_45_0 <= 14.975845410628
 0 <= xp_46_0 <= 20.9661835748792
 0 <= xp_47_0 <= 19.9677938808374
 0 <= xp_48_0 <= 14.120082815735
 0 <= xp_48_1 <= 14.120082815735
 0 <= xp_49_0 <= 14.8332183114792
 0 <= xp_50_0 <= 16.1168622038187
 0 <= xp_51_0 <= 24.1039797561537
 0 <= xp_52_0 <= 20.0034506556246
 0 <= xp_52_1 <= 6.66781688520819
 0 <= xp_53_0 <= 27.9549114331723
 0 <= xp_54_0 <= 27.5270301357258
 0 <= xp_55_0 <= 21.5366919714746
 0 <= xp_56_0 <= 15.1184725097769
 0 <= xp_57_0 <= 17.8283873936048
 0 <= xp_58_0 <= 27.6696572348746
 0 <= xp_59_0 <= 27.6696572348746
 0 <= xp_60_0 <= 8.77156659765355
 0 <= xp_60_1 <= 8.77156659765355
 0 <= xp_61_0 <= 25.8155049459397
 0 <= xp_62_0 <= 27.5270301357258
 0 <= xp_63_0 <= 19.3616287094548
 0 <= xp_63_1 <= 6.45387623648493
 0 <= xp_64_0 <= 27.8122843340235
 0 <= xp_65_0 <= 20.1104209799862

End
